Minimize
 obj: 0 X_0_1
Subject To
 out_0:
  + 1 X_0_1 + 1 X_0_2 + 1 X_0_3 + 1 X_0_4 + 1 X_0_5 + 1 X_0_6 + 1 X_0_7 + 1 X_0_8
  + 1 X_0_9
  = 1
 in_0:
  + 1 X_1_0 + 1 X_2_0 + 1 X_3_0 + 1 X_4_0 + 1 X_5_0 + 1 X_6_0 + 1 X_7_0 + 1 X_8_0
  + 1 X_9_0
  = 1
 out_1:
  + 1 X_1_0 + 1 X_1_2 + 1 X_1_3 + 1 X_1_4 + 1 X_1_5 + 1 X_1_6 + 1 X_1_7 + 1 X_1_8
  + 1 X_1_9
  = 1
 in_1:
  + 1 X_0_1 + 1 X_2_1 + 1 X_3_1 + 1 X_4_1 + 1 X_5_1 + 1 X_6_1 + 1 X_7_1 + 1 X_8_1
  + 1 X_9_1
  = 1
 out_2:
  + 1 X_2_0 + 1 X_2_1 + 1 X_2_3 + 1 X_2_4 + 1 X_2_5 + 1 X_2_6 + 1 X_2_7 + 1 X_2_8
  + 1 X_2_9
  = 1
 in_2:
  + 1 X_0_2 + 1 X_1_2 + 1 X_3_2 + 1 X_4_2 + 1 X_5_2 + 1 X_6_2 + 1 X_7_2 + 1 X_8_2
  + 1 X_9_2
  = 1
 out_3:
  + 1 X_3_0 + 1 X_3_1 + 1 X_3_2 + 1 X_3_4 + 1 X_3_5 + 1 X_3_6 + 1 X_3_7 + 1 X_3_8
  + 1 X_3_9
  = 1
 in_3:
  + 1 X_0_3 + 1 X_1_3 + 1 X_2_3 + 1 X_4_3 + 1 X_5_3 + 1 X_6_3 + 1 X_7_3 + 1 X_8_3
  + 1 X_9_3
  = 1
 out_4:
  + 1 X_4_0 + 1 X_4_1 + 1 X_4_2 + 1 X_4_3 + 1 X_4_5 + 1 X_4_6 + 1 X_4_7 + 1 X_4_8
  + 1 X_4_9
  = 1
 in_4:
  + 1 X_0_4 + 1 X_1_4 + 1 X_2_4 + 1 X_3_4 + 1 X_5_4 + 1 X_6_4 + 1 X_7_4 + 1 X_8_4
  + 1 X_9_4
  = 1
 out_5:
  + 1 X_5_0 + 1 X_5_1 + 1 X_5_2 + 1 X_5_3 + 1 X_5_4 + 1 X_5_6 + 1 X_5_7 + 1 X_5_8
  + 1 X_5_9
  = 1
 in_5:
  + 1 X_0_5 + 1 X_1_5 + 1 X_2_5 + 1 X_3_5 + 1 X_4_5 + 1 X_6_5 + 1 X_7_5 + 1 X_8_5
  + 1 X_9_5
  = 1
 out_6:
  + 1 X_6_0 + 1 X_6_1 + 1 X_6_2 + 1 X_6_3 + 1 X_6_4 + 1 X_6_5 + 1 X_6_7 + 1 X_6_8
  + 1 X_6_9
  = 1
 in_6:
  + 1 X_0_6 + 1 X_1_6 + 1 X_2_6 + 1 X_3_6 + 1 X_4_6 + 1 X_5_6 + 1 X_7_6 + 1 X_8_6
  + 1 X_9_6
  = 1
 out_7:
  + 1 X_7_0 + 1 X_7_1 + 1 X_7_2 + 1 X_7_3 + 1 X_7_4 + 1 X_7_5 + 1 X_7_6 + 1 X_7_8
  + 1 X_7_9
  = 1
 in_7:
  + 1 X_0_7 + 1 X_1_7 + 1 X_2_7 + 1 X_3_7 + 1 X_4_7 + 1 X_5_7 + 1 X_6_7 + 1 X_8_7
  + 1 X_9_7
  = 1
 out_8:
  + 1 X_8_0 + 1 X_8_1 + 1 X_8_2 + 1 X_8_3 + 1 X_8_4 + 1 X_8_5 + 1 X_8_6 + 1 X_8_7
  + 1 X_8_9
  = 1
 in_8:
  + 1 X_0_8 + 1 X_1_8 + 1 X_2_8 + 1 X_3_8 + 1 X_4_8 + 1 X_5_8 + 1 X_6_8 + 1 X_7_8
  + 1 X_9_8
  = 1
 out_9:
  + 1 X_9_0 + 1 X_9_1 + 1 X_9_2 + 1 X_9_3 + 1 X_9_4 + 1 X_9_5 + 1 X_9_6 + 1 X_9_7
  + 1 X_9_8
  = 1
 in_9:
  + 1 X_0_9 + 1 X_1_9 + 1 X_2_9 + 1 X_3_9 + 1 X_4_9 + 1 X_5_9 + 1 X_6_9 + 1 X_7_9
  + 1 X_8_9
  = 1
 mtz_1_2:
  + 1 U1 - 1 U2 + 9 X_1_2
  <= 8
 mtz_1_3:
  + 1 U1 - 1 U3 + 9 X_1_3
  <= 8
 mtz_1_4:
  + 1 U1 - 1 U4 + 9 X_1_4
  <= 8
 mtz_1_5:
  + 1 U1 - 1 U5 + 9 X_1_5
  <= 8
 mtz_1_6:
  + 1 U1 - 1 U6 + 9 X_1_6
  <= 8
 mtz_1_7:
  + 1 U1 - 1 U7 + 9 X_1_7
  <= 8
 mtz_1_8:
  + 1 U1 - 1 U8 + 9 X_1_8
  <= 8
 mtz_1_9:
  + 1 U1 - 1 U9 + 9 X_1_9
  <= 8
 mtz_2_1:
  + 1 U2 - 1 U1 + 9 X_2_1
  <= 8
 mtz_2_3:
  + 1 U2 - 1 U3 + 9 X_2_3
  <= 8
 mtz_2_4:
  + 1 U2 - 1 U4 + 9 X_2_4
  <= 8
 mtz_2_5:
  + 1 U2 - 1 U5 + 9 X_2_5
  <= 8
 mtz_2_6:
  + 1 U2 - 1 U6 + 9 X_2_6
  <= 8
 mtz_2_7:
  + 1 U2 - 1 U7 + 9 X_2_7
  <= 8
 mtz_2_8:
  + 1 U2 - 1 U8 + 9 X_2_8
  <= 8
 mtz_2_9:
  + 1 U2 - 1 U9 + 9 X_2_9
  <= 8
 mtz_3_1:
  + 1 U3 - 1 U1 + 9 X_3_1
  <= 8
 mtz_3_2:
  + 1 U3 - 1 U2 + 9 X_3_2
  <= 8
 mtz_3_4:
  + 1 U3 - 1 U4 + 9 X_3_4
  <= 8
 mtz_3_5:
  + 1 U3 - 1 U5 + 9 X_3_5
  <= 8
 mtz_3_6:
  + 1 U3 - 1 U6 + 9 X_3_6
  <= 8
 mtz_3_7:
  + 1 U3 - 1 U7 + 9 X_3_7
  <= 8
 mtz_3_8:
  + 1 U3 - 1 U8 + 9 X_3_8
  <= 8
 mtz_3_9:
  + 1 U3 - 1 U9 + 9 X_3_9
  <= 8
 mtz_4_1:
  + 1 U4 - 1 U1 + 9 X_4_1
  <= 8
 mtz_4_2:
  + 1 U4 - 1 U2 + 9 X_4_2
  <= 8
 mtz_4_3:
  + 1 U4 - 1 U3 + 9 X_4_3
  <= 8
 mtz_4_5:
  + 1 U4 - 1 U5 + 9 X_4_5
  <= 8
 mtz_4_6:
  + 1 U4 - 1 U6 + 9 X_4_6
  <= 8
 mtz_4_7:
  + 1 U4 - 1 U7 + 9 X_4_7
  <= 8
 mtz_4_8:
  + 1 U4 - 1 U8 + 9 X_4_8
  <= 8
 mtz_4_9:
  + 1 U4 - 1 U9 + 9 X_4_9
  <= 8
 mtz_5_1:
  + 1 U5 - 1 U1 + 9 X_5_1
  <= 8
 mtz_5_2:
  + 1 U5 - 1 U2 + 9 X_5_2
  <= 8
 mtz_5_3:
  + 1 U5 - 1 U3 + 9 X_5_3
  <= 8
 mtz_5_4:
  + 1 U5 - 1 U4 + 9 X_5_4
  <= 8
 mtz_5_6:
  + 1 U5 - 1 U6 + 9 X_5_6
  <= 8
 mtz_5_7:
  + 1 U5 - 1 U7 + 9 X_5_7
  <= 8
 mtz_5_8:
  + 1 U5 - 1 U8 + 9 X_5_8
  <= 8
 mtz_5_9:
  + 1 U5 - 1 U9 + 9 X_5_9
  <= 8
 mtz_6_1:
  + 1 U6 - 1 U1 + 9 X_6_1
  <= 8
 mtz_6_2:
  + 1 U6 - 1 U2 + 9 X_6_2
  <= 8
 mtz_6_3:
  + 1 U6 - 1 U3 + 9 X_6_3
  <= 8
 mtz_6_4:
  + 1 U6 - 1 U4 + 9 X_6_4
  <= 8
 mtz_6_5:
  + 1 U6 - 1 U5 + 9 X_6_5
  <= 8
 mtz_6_7:
  + 1 U6 - 1 U7 + 9 X_6_7
  <= 8
 mtz_6_8:
  + 1 U6 - 1 U8 + 9 X_6_8
  <= 8
 mtz_6_9:
  + 1 U6 - 1 U9 + 9 X_6_9
  <= 8
 mtz_7_1:
  + 1 U7 - 1 U1 + 9 X_7_1
  <= 8
 mtz_7_2:
  + 1 U7 - 1 U2 + 9 X_7_2
  <= 8
 mtz_7_3:
  + 1 U7 - 1 U3 + 9 X_7_3
  <= 8
 mtz_7_4:
  + 1 U7 - 1 U4 + 9 X_7_4
  <= 8
 mtz_7_5:
  + 1 U7 - 1 U5 + 9 X_7_5
  <= 8
 mtz_7_6:
  + 1 U7 - 1 U6 + 9 X_7_6
  <= 8
 mtz_7_8:
  + 1 U7 - 1 U8 + 9 X_7_8
  <= 8
 mtz_7_9:
  + 1 U7 - 1 U9 + 9 X_7_9
  <= 8
 mtz_8_1:
  + 1 U8 - 1 U1 + 9 X_8_1
  <= 8
 mtz_8_2:
  + 1 U8 - 1 U2 + 9 X_8_2
  <= 8
 mtz_8_3:
  + 1 U8 - 1 U3 + 9 X_8_3
  <= 8
 mtz_8_4:
  + 1 U8 - 1 U4 + 9 X_8_4
  <= 8
 mtz_8_5:
  + 1 U8 - 1 U5 + 9 X_8_5
  <= 8
 mtz_8_6:
  + 1 U8 - 1 U6 + 9 X_8_6
  <= 8
 mtz_8_7:
  + 1 U8 - 1 U7 + 9 X_8_7
  <= 8
 mtz_8_9:
  + 1 U8 - 1 U9 + 9 X_8_9
  <= 8
 mtz_9_1:
  + 1 U9 - 1 U1 + 9 X_9_1
  <= 8
 mtz_9_2:
  + 1 U9 - 1 U2 + 9 X_9_2
  <= 8
 mtz_9_3:
  + 1 U9 - 1 U3 + 9 X_9_3
  <= 8
 mtz_9_4:
  + 1 U9 - 1 U4 + 9 X_9_4
  <= 8
 mtz_9_5:
  + 1 U9 - 1 U5 + 9 X_9_5
  <= 8
 mtz_9_6:
  + 1 U9 - 1 U6 + 9 X_9_6
  <= 8
 mtz_9_7:
  + 1 U9 - 1 U7 + 9 X_9_7
  <= 8
 mtz_9_8:
  + 1 U9 - 1 U8 + 9 X_9_8
  <= 8
 obj1:
  + 296 X_0_1 + 653 X_0_2 + 97 X_0_3 + 458 X_0_4 + 628 X_0_5 + 680 X_0_6 + 863 X_0_7 + 193 X_0_8
  + 731 X_0_9 + 296 X_1_0 + 560 X_1_2 + 390 X_1_3 + 436 X_1_4 + 592 X_1_5 + 515 X_1_6 + 584 X_1_7
  + 133 X_1_8 + 525 X_1_9 + 653 X_2_0 + 560 X_2_1 + 727 X_2_3 + 209 X_2_4 + 122 X_2_5 + 163 X_2_6
  + 584 X_2_7 + 516 X_2_8 + 274 X_2_9 + 97 X_3_0 + 390 X_3_1 + 727 X_3_2 + 524 X_3_4 + 689 X_3_5
  + 766 X_3_6 + 960 X_3_7 + 290 X_3_8 + 822 X_3_9 + 458 X_4_0 + 436 X_4_1 + 209 X_4_2 + 524 X_4_3
  + 171 X_4_5 + 306 X_4_6 + 672 X_4_7 + 353 X_4_8 + 404 X_4_9 + 628 X_5_0 + 592 X_5_1 + 122 X_5_2
  + 689 X_5_3 + 171 X_5_4 + 283 X_5_6 + 701 X_5_7 + 521 X_5_8 + 394 X_5_9 + 680 X_6_0 + 515 X_6_1
  + 163 X_6_2 + 766 X_6_3 + 306 X_6_4 + 283 X_6_5 + 421 X_6_7 + 511 X_6_8 + 111 X_6_9 + 863 X_7_0
  + 584 X_7_1 + 584 X_7_2 + 960 X_7_3 + 672 X_7_4 + 701 X_7_5 + 421 X_7_6 + 670 X_7_8 + 314 X_7_9
  + 193 X_8_0 + 133 X_8_1 + 516 X_8_2 + 290 X_8_3 + 353 X_8_4 + 521 X_8_5 + 511 X_8_6 + 670 X_8_7
  + 548 X_8_9 + 731 X_9_0 + 525 X_9_1 + 274 X_9_2 + 822 X_9_3 + 404 X_9_4 + 394 X_9_5 + 111 X_9_6
  + 314 X_9_7 + 548 X_9_8
  <= 1
 obj2:
  + 499 X_0_1 + 587 X_0_2 + 184 X_0_3 + 823 X_0_4 + 675 X_0_5 + 602 X_0_6 + 664 X_0_7 + 390 X_0_8
  + 769 X_0_9 + 499 X_1_0 + 499 X_1_2 + 401 X_1_3 + 664 X_1_4 + 536 X_1_5 + 898 X_1_6 + 718 X_1_7
  + 136 X_1_8 + 279 X_1_9 + 587 X_2_0 + 499 X_2_1 + 652 X_2_3 + 235 X_2_4 + 90 X_2_5 + 549 X_2_6
  + 237 X_2_7 + 406 X_2_8 + 564 X_2_9 + 184 X_3_0 + 401 X_3_1 + 652 X_3_2 + 880 X_3_4 + 730 X_3_5
  + 775 X_3_6 + 780 X_3_7 + 334 X_3_8 + 681 X_3_9 + 823 X_4_0 + 664 X_4_1 + 235 X_4_2 + 880 X_4_3
  + 150 X_4_5 + 688 X_4_6 + 312 X_4_7 + 602 X_4_8 + 632 X_4_9 + 675 X_5_0 + 536 X_5_1 + 90 X_5_2
  + 730 X_5_3 + 150 X_5_4 + 614 X_5_6 + 267 X_5_7 + 460 X_5_8 + 555 X_5_9 + 602 X_6_0 + 898 X_6_1
  + 549 X_6_2 + 775 X_6_3 + 688 X_6_4 + 614 X_6_5 + 377 X_6_7 + 764 X_6_8 + 1069 X_6_9 + 664 X_7_0
  + 718 X_7_1 + 237 X_7_2 + 780 X_7_3 + 312 X_7_4 + 267 X_7_5 + 377 X_7_6 + 607 X_7_8 + 802 X_7_9
  + 390 X_8_0 + 136 X_8_1 + 406 X_8_2 + 334 X_8_3 + 602 X_8_4 + 460 X_8_5 + 764 X_8_6 + 607 X_8_7
  + 380 X_8_9 + 769 X_9_0 + 279 X_9_1 + 564 X_9_2 + 681 X_9_3 + 632 X_9_4 + 555 X_9_5 + 1069 X_9_6
  + 802 X_9_7 + 380 X_9_8
  <= 2
 obj3:
  + 144 X_0_1 + 180 X_0_2 + 487 X_0_3 + 271 X_0_4 + 455 X_0_5 + 575 X_0_6 + 148 X_0_7 + 399 X_0_8
  + 495 X_0_9 + 144 X_1_0 + 50 X_1_2 + 495 X_1_3 + 377 X_1_4 + 419 X_1_5 + 584 X_1_6 + 242 X_1_7
  + 333 X_1_8 + 563 X_1_9 + 180 X_2_0 + 50 X_2_1 + 465 X_2_3 + 385 X_2_4 + 379 X_2_5 + 553 X_2_6
  + 251 X_2_7 + 288 X_2_8 + 552 X_2_9 + 487 X_3_0 + 495 X_3_1 + 465 X_3_2 + 344 X_3_4 + 152 X_3_5
  + 89 X_3_6 + 361 X_3_7 + 255 X_3_8 + 223 X_3_9 + 271 X_4_0 + 377 X_4_1 + 385 X_4_2 + 344 X_4_3
  + 404 X_4_5 + 415 X_4_6 + 135 X_4_7 + 420 X_4_8 + 249 X_4_9 + 455 X_5_0 + 419 X_5_1 + 379 X_5_2
  + 152 X_5_3 + 404 X_5_4 + 213 X_5_6 + 366 X_5_7 + 113 X_5_8 + 361 X_5_9 + 575 X_6_0 + 584 X_6_1
  + 553 X_6_2 + 89 X_6_3 + 415 X_6_4 + 213 X_6_5 + 446 X_6_7 + 325 X_6_8 + 242 X_6_9 + 148 X_7_0
  + 242 X_7_1 + 251 X_7_2 + 361 X_7_3 + 135 X_7_4 + 366 X_7_5 + 446 X_7_6 + 346 X_7_8 + 346 X_7_9
  + 399 X_8_0 + 333 X_8_1 + 288 X_8_2 + 255 X_8_3 + 420 X_8_4 + 113 X_8_5 + 325 X_8_6 + 346 X_8_7
  + 440 X_8_9 + 495 X_9_0 + 563 X_9_1 + 552 X_9_2 + 223 X_9_3 + 249 X_9_4 + 361 X_9_5 + 242 X_9_6
  + 346 X_9_7 + 440 X_9_8
  <= 3
 obj4:
  + 114 X_0_1 + 397 X_0_2 + 585 X_0_3 + 291 X_0_4 + 242 X_0_5 + 458 X_0_6 + 570 X_0_7 + 536 X_0_8
  + 411 X_0_9 + 114 X_1_0 + 501 X_1_2 + 700 X_1_3 + 349 X_1_4 + 343 X_1_5 + 546 X_1_6 + 636 X_1_7
  + 525 X_1_8 + 504 X_1_9 + 397 X_2_0 + 501 X_2_1 + 301 X_2_3 + 259 X_2_4 + 158 X_2_5 + 508 X_2_6
  + 683 X_2_7 + 848 X_2_8 + 453 X_2_9 + 585 X_3_0 + 700 X_3_1 + 301 X_3_2 + 552 X_3_4 + 409 X_3_5
  + 410 X_3_6 + 574 X_3_7 + 869 X_3_8 + 377 X_3_9 + 291 X_4_0 + 349 X_4_1 + 259 X_4_2 + 552 X_4_3
  + 165 X_4_5 + 632 X_4_6 + 786 X_4_7 + 825 X_4_8 + 576 X_4_9 + 242 X_5_0 + 343 X_5_1 + 158 X_5_2
  + 409 X_5_3 + 165 X_5_4 + 474 X_5_6 + 635 X_5_7 + 730 X_5_8 + 417 X_5_9 + 458 X_6_0 + 546 X_6_1
  + 508 X_6_2 + 410 X_6_3 + 632 X_6_4 + 474 X_6_5 + 176 X_6_7 + 481 X_6_8 + 57 X_6_9 + 570 X_7_0
  + 636 X_7_1 + 683 X_7_2 + 574 X_7_3 + 786 X_7_4 + 635 X_7_5 + 176 X_7_6 + 397 X_7_8 + 230 X_7_9
  + 536 X_8_0 + 525 X_8_1 + 848 X_8_2 + 869 X_8_3 + 825 X_8_4 + 730 X_8_5 + 481 X_8_6 + 397 X_8_7
  + 497 X_8_9 + 411 X_9_0 + 504 X_9_1 + 453 X_9_2 + 377 X_9_3 + 576 X_9_4 + 417 X_9_5 + 57 X_9_6
  + 230 X_9_7 + 497 X_9_8
  <= 4
 obj5:
  + 637 X_0_1 + 817 X_0_2 + 825 X_0_3 + 730 X_0_4 + 1097 X_0_5 + 735 X_0_6 + 262 X_0_7 + 528 X_0_8
  + 967 X_0_9 + 637 X_1_0 + 520 X_1_2 + 1011 X_1_3 + 586 X_1_4 + 882 X_1_5 + 918 X_1_6 + 377 X_1_7
  + 669 X_1_8 + 802 X_1_9 + 817 X_2_0 + 520 X_2_1 + 654 X_2_3 + 168 X_2_4 + 362 X_2_5 + 588 X_2_6
  + 660 X_2_7 + 445 X_2_8 + 288 X_2_9 + 825 X_3_0 + 1011 X_3_1 + 654 X_3_2 + 493 X_3_4 + 606 X_3_5
  + 97 X_3_6 + 876 X_3_7 + 356 X_3_8 + 499 X_3_9 + 730 X_4_0 + 586 X_4_1 + 168 X_4_2 + 493 X_4_3
  + 370 X_4_5 + 421 X_4_6 + 622 X_4_7 + 288 X_4_8 + 249 X_4_9 + 1097 X_5_0 + 882 X_5_1 + 362 X_5_2
  + 606 X_5_3 + 370 X_5_4 + 591 X_5_6 + 989 X_5_7 + 606 X_5_8 + 134 X_5_9 + 735 X_6_0 + 918 X_6_1
  + 588 X_6_2 + 97 X_6_3 + 421 X_6_4 + 591 X_6_5 + 778 X_6_7 + 258 X_6_8 + 471 X_6_9 + 262 X_7_0
  + 377 X_7_1 + 660 X_7_2 + 876 X_7_3 + 622 X_7_4 + 989 X_7_5 + 778 X_7_6 + 526 X_7_8 + 872 X_7_9
  + 528 X_8_0 + 669 X_8_1 + 445 X_8_2 + 356 X_8_3 + 288 X_8_4 + 606 X_8_5 + 258 X_8_6 + 526 X_8_7
  + 472 X_8_9 + 967 X_9_0 + 802 X_9_1 + 288 X_9_2 + 499 X_9_3 + 249 X_9_4 + 134 X_9_5 + 471 X_9_6
  + 872 X_9_7 + 472 X_9_8
  <= 5
Bounds
 1 <= U1 <= 9
 1 <= U2 <= 9
 1 <= U3 <= 9
 1 <= U4 <= 9
 1 <= U5 <= 9
 1 <= U6 <= 9
 1 <= U7 <= 9
 1 <= U8 <= 9
 1 <= U9 <= 9
Binary
 X_0_1
 X_0_2
 X_0_3
 X_0_4
 X_0_5
 X_0_6
 X_0_7
 X_0_8
 X_0_9
 X_1_0
 X_1_2
 X_1_3
 X_1_4
 X_1_5
 X_1_6
 X_1_7
 X_1_8
 X_1_9
 X_2_0
 X_2_1
 X_2_3
 X_2_4
 X_2_5
 X_2_6
 X_2_7
 X_2_8
 X_2_9
 X_3_0
 X_3_1
 X_3_2
 X_3_4
 X_3_5
 X_3_6
 X_3_7
 X_3_8
 X_3_9
 X_4_0
 X_4_1
 X_4_2
 X_4_3
 X_4_5
 X_4_6
 X_4_7
 X_4_8
 X_4_9
 X_5_0
 X_5_1
 X_5_2
 X_5_3
 X_5_4
 X_5_6
 X_5_7
 X_5_8
 X_5_9
 X_6_0
 X_6_1
 X_6_2
 X_6_3
 X_6_4
 X_6_5
 X_6_7
 X_6_8
 X_6_9
 X_7_0
 X_7_1
 X_7_2
 X_7_3
 X_7_4
 X_7_5
 X_7_6
 X_7_8
 X_7_9
 X_8_0
 X_8_1
 X_8_2
 X_8_3
 X_8_4
 X_8_5
 X_8_6
 X_8_7
 X_8_9
 X_9_0
 X_9_1
 X_9_2
 X_9_3
 X_9_4
 X_9_5
 X_9_6
 X_9_7
 X_9_8
End
